12	14	14	10	19	15	12	16	11	3
8	1	17	13	4	3	1	13	15	1
7	11	13	17	5	20	13	20	5	2
20	2	13	18	14	2	1	1	17	16
13	20	7	14	2	9	17	14	6	18
17	13	14	11	17	16	19	8	3	10
3	5	10	6	14	12	20	7	11	2
16	9	4	14	5	4	15	18	1	16
3	17	19	4	5	3	10	5	19	4
